param n := 120;
param c := 1000;
param : V : p w :=
   0	  92	 394
   1	  47	 280
   2	  62	 326
   3	   7	 370
   4	  78	 284
   5	  54	 346
   6	  89	 427
   7	  24	 259
   8	  77	 314
   9	  10	 430
  10	  31	 270
  11	  41	 300
  12	  85	 462
  13	  47	 261
  14	  50	 277
  15	  59	 356
  16	  98	 292
  17	  22	 352
  18	  42	 498
  19	  21	 250
  20	  51	 252
  21	  89	 432
  22	  49	 276
  23	 100	 292
  24	  66	 391
  25	  42	 252
  26	  55	 357
  27	  67	 397
  28	   3	 274
  29	  16	 329
  30	  30	 490
  31	  55	 251
  32	  47	 259
  33	  35	 408
  34	   7	 256
  35	   2	 336
  36	  23	 434
  37	  92	 262
  38	   4	 304
  39	  49	 482
  40	  75	 256
  41	  61	 262
  42	 100	 387
  43	  86	 275
  44	  68	 338
  45	  20	 362
  46	  11	 293
  47	  33	 345
  48	  47	 428
  49	  35	 284
  50	  40	 288
  51	  47	 408
  52	  73	 288
  53	   5	 304
  54	  77	 480
  55	  47	 250
  56	  87	 270
  57	  81	 394
  58	   8	 276
  59	  21	 330
  60	  47	 361
  61	  42	 253
  62	   8	 386
  63	  19	 375
  64	  58	 281
  65	  79	 344
  66	  38	 478
  67	  34	 251
  68	  51	 271
  69	  66	 478
  70	  50	 250
  71	  14	 272
  72	  62	 356
  73	  62	 276
  74	  90	 368
  75	  99	 387
  76	   4	 269
  77	  67	 344
  78	  77	 486
  79	  65	 252
  80	  38	 262
  81	  91	 414
  82	  25	 263
  83	  56	 323
  84	  98	 410
  85	  25	 250
  86	  89	 340
  87	  63	 400
  88	   1	 295
  89	  49	 305
  90	  40	 382
  91	  88	 282
  92	  12	 336
  93	  51	 434
  94	  30	 269
  95	  15	 297
  96	  59	 395
  97	  32	 278
  98	  37	 327
  99	   5	 353
 100	  69	 281
 101	  30	 366
 102	  35	 419
 103	  24	 285
 104	   7	 296
 105	  41	 362
 106	  18	 314
 107	  39	 324
 108	  26	 495
 109	  41	 251
 110	  13	 254
 111	  45	 499
 112	  12	 250
 113	   2	 251
 114	  19	 364
 115	   6	 289
 116	  79	 347
 117	  45	 498
 118	  45	 250
 119	  33	 252
;

set E :=
   0	   5
   0	   6
   0	   8
   0	  13
   0	  15
   0	  18
   0	  22
   0	  26
   0	  27
   0	  33
   0	  37
   0	  38
   0	  41
   0	  44
   0	  46
   0	  48
   0	  56
   0	  59
   0	  60
   0	  61
   0	  64
   0	  65
   0	  67
   0	  69
   0	  70
   0	  71
   0	  76
   0	  77
   0	  79
   0	  87
   0	  88
   0	  92
   0	  93
   0	  94
   0	  95
   0	  96
   0	  98
   0	  99
   0	 100
   0	 103
   0	 104
   0	 107
   0	 108
   0	 109
   0	 112
   0	 116
   0	 117
   0	 119
   1	   3
   1	   6
   1	   8
   1	  11
   1	  16
   1	  17
   1	  20
   1	  22
   1	  24
   1	  26
   1	  27
   1	  28
   1	  33
   1	  37
   1	  43
   1	  48
   1	  50
   1	  59
   1	  63
   1	  64
   1	  65
   1	  68
   1	  69
   1	  77
   1	  78
   1	  82
   1	  86
   1	  90
   1	  91
   1	  92
   1	  95
   1	  96
   1	  97
   1	  98
   1	  99
   1	 100
   1	 102
   1	 103
   1	 107
   1	 109
   1	 112
   1	 113
   1	 114
   1	 116
   1	 119
   2	   3
   2	   6
   2	   7
   2	   8
   2	  10
   2	  11
   2	  12
   2	  14
   2	  15
   2	  16
   2	  17
   2	  19
   2	  25
   2	  28
   2	  33
   2	  35
   2	  41
   2	  43
   2	  45
   2	  46
   2	  48
   2	  50
   2	  52
   2	  53
   2	  54
   2	  55
   2	  60
   2	  63
   2	  66
   2	  67
   2	  69
   2	  71
   2	  72
   2	  73
   2	  74
   2	  75
   2	  76
   2	  79
   2	  83
   2	  86
   2	  87
   2	  89
   2	  90
   2	  92
   2	  93
   2	  95
   2	  96
   2	  98
   2	 101
   2	 102
   2	 104
   2	 105
   2	 106
   2	 107
   2	 108
   2	 109
   2	 111
   2	 114
   2	 115
   2	 117
   2	 119
   3	   6
   3	   7
   3	   8
   3	   9
   3	  12
   3	  14
   3	  15
   3	  16
   3	  17
   3	  18
   3	  23
   3	  24
   3	  25
   3	  27
   3	  28
   3	  31
   3	  38
   3	  41
   3	  47
   3	  48
   3	  49
   3	  50
   3	  53
   3	  58
   3	  60
   3	  62
   3	  63
   3	  64
   3	  68
   3	  70
   3	  72
   3	  73
   3	  74
   3	  75
   3	  76
   3	  79
   3	  83
   3	  85
   3	  87
   3	  88
   3	  91
   3	  98
   3	 101
   3	 102
   3	 103
   3	 104
   3	 106
   3	 111
   3	 112
   3	 113
   3	 116
   3	 117
   3	 118
   3	 119
   4	   5
   4	   6
   4	   7
   4	   8
   4	   9
   4	  10
   4	  15
   4	  16
   4	  23
   4	  27
   4	  29
   4	  30
   4	  33
   4	  38
   4	  41
   4	  46
   4	  47
   4	  49
   4	  51
   4	  54
   4	  55
   4	  59
   4	  62
   4	  65
   4	  67
   4	  68
   4	  70
   4	  71
   4	  72
   4	  74
   4	  75
   4	  78
   4	  80
   4	  82
   4	  83
   4	  85
   4	  87
   4	  88
   4	  89
   4	  92
   4	  98
   4	 100
   4	 102
   4	 103
   4	 106
   4	 108
   4	 110
   4	 113
   4	 114
   4	 115
   4	 116
   5	  10
   5	  14
   5	  15
   5	  17
   5	  19
   5	  21
   5	  22
   5	  26
   5	  27
   5	  30
   5	  31
   5	  33
   5	  35
   5	  36
   5	  40
   5	  41
   5	  42
   5	  43
   5	  48
   5	  50
   5	  51
   5	  53
   5	  54
   5	  56
   5	  58
   5	  64
   5	  67
   5	  71
   5	  73
   5	  75
   5	  79
   5	  82
   5	  83
   5	  84
   5	  85
   5	  87
   5	  88
   5	  89
   5	  92
   5	  93
   5	  96
   5	 100
   5	 103
   5	 107
   5	 111
   5	 119
   6	   8
   6	  14
   6	  17
   6	  20
   6	  23
   6	  24
   6	  30
   6	  33
   6	  35
   6	  37
   6	  42
   6	  43
   6	  48
   6	  51
   6	  54
   6	  55
   6	  56
   6	  57
   6	  59
   6	  60
   6	  62
   6	  70
   6	  74
   6	  75
   6	  77
   6	  85
   6	  86
   6	  87
   6	  88
   6	  94
   6	  99
   6	 103
   6	 106
   6	 109
   6	 115
   6	 116
   6	 117
   6	 118
   6	 119
   7	   9
   7	  10
   7	  16
   7	  22
   7	  24
   7	  25
   7	  32
   7	  35
   7	  37
   7	  39
   7	  40
   7	  43
   7	  44
   7	  48
   7	  50
   7	  51
   7	  52
   7	  54
   7	  55
   7	  57
   7	  60
   7	  61
   7	  65
   7	  66
   7	  67
   7	  68
   7	  70
   7	  74
   7	  75
   7	  76
   7	  80
   7	  81
   7	  86
   7	  91
   7	  92
   7	  93
   7	  96
   7	  97
   7	  99
   7	 100
   7	 101
   7	 103
   7	 105
   7	 106
   7	 108
   7	 109
   7	 114
   7	 115
   7	 117
   7	 118
   8	   9
   8	  10
   8	  14
   8	  19
   8	  20
   8	  23
   8	  29
   8	  30
   8	  36
   8	  38
   8	  42
   8	  44
   8	  46
   8	  47
   8	  48
   8	  49
   8	  50
   8	  52
   8	  54
   8	  55
   8	  59
   8	  60
   8	  61
   8	  65
   8	  66
   8	  67
   8	  68
   8	  69
   8	  71
   8	  75
   8	  76
   8	  78
   8	  80
   8	  82
   8	  89
   8	  90
   8	  92
   8	  94
   8	  96
   8	 100
   8	 101
   8	 102
   8	 103
   8	 104
   8	 105
   8	 108
   8	 109
   8	 110
   9	  11
   9	  15
   9	  16
   9	  19
   9	  21
   9	  29
   9	  31
   9	  36
   9	  37
   9	  38
   9	  42
   9	  43
   9	  44
   9	  45
   9	  46
   9	  47
   9	  48
   9	  51
   9	  53
   9	  65
   9	  66
   9	  69
   9	  73
   9	  74
   9	  80
   9	  81
   9	  83
   9	  88
   9	  89
   9	  91
   9	  95
   9	 102
   9	 104
   9	 106
   9	 110
   9	 111
   9	 113
   9	 115
   9	 116
   9	 118
   9	 119
  10	  14
  10	  18
  10	  19
  10	  24
  10	  25
  10	  32
  10	  33
  10	  34
  10	  35
  10	  37
  10	  40
  10	  41
  10	  42
  10	  43
  10	  44
  10	  50
  10	  51
  10	  52
  10	  53
  10	  55
  10	  57
  10	  59
  10	  61
  10	  63
  10	  66
  10	  68
  10	  69
  10	  79
  10	  81
  10	  82
  10	  83
  10	  84
  10	  85
  10	  88
  10	  89
  10	  90
  10	  93
  10	  95
  10	  96
  10	  99
  10	 100
  10	 102
  10	 104
  10	 108
  10	 112
  10	 114
  10	 115
  10	 116
  10	 117
  11	  13
  11	  17
  11	  19
  11	  20
  11	  21
  11	  22
  11	  23
  11	  24
  11	  25
  11	  28
  11	  29
  11	  32
  11	  34
  11	  37
  11	  40
  11	  47
  11	  48
  11	  49
  11	  56
  11	  57
  11	  58
  11	  60
  11	  62
  11	  65
  11	  66
  11	  67
  11	  68
  11	  76
  11	  77
  11	  82
  11	  83
  11	  85
  11	  86
  11	  91
  11	  95
  11	  96
  11	 100
  11	 102
  11	 104
  11	 105
  11	 112
  12	  15
  12	  23
  12	  24
  12	  25
  12	  28
  12	  29
  12	  34
  12	  35
  12	  39
  12	  40
  12	  45
  12	  46
  12	  47
  12	  49
  12	  53
  12	  64
  12	  68
  12	  72
  12	  75
  12	  76
  12	  82
  12	  83
  12	  84
  12	  86
  12	  87
  12	  92
  12	  93
  12	  96
  12	  99
  12	 100
  12	 102
  12	 103
  12	 104
  12	 105
  12	 112
  12	 117
  12	 118
  13	  15
  13	  16
  13	  17
  13	  18
  13	  22
  13	  23
  13	  25
  13	  26
  13	  28
  13	  35
  13	  36
  13	  37
  13	  38
  13	  41
  13	  44
  13	  45
  13	  46
  13	  47
  13	  48
  13	  53
  13	  54
  13	  55
  13	  56
  13	  59
  13	  62
  13	  64
  13	  67
  13	  70
  13	  72
  13	  74
  13	  76
  13	  78
  13	  80
  13	  82
  13	  84
  13	  88
  13	  89
  13	  90
  13	  91
  13	  95
  13	 100
  13	 101
  13	 107
  13	 110
  13	 111
  13	 112
  13	 114
  13	 119
  14	  17
  14	  24
  14	  25
  14	  28
  14	  29
  14	  33
  14	  38
  14	  39
  14	  41
  14	  43
  14	  45
  14	  46
  14	  47
  14	  51
  14	  52
  14	  56
  14	  57
  14	  59
  14	  63
  14	  64
  14	  65
  14	  70
  14	  78
  14	  82
  14	  84
  14	  85
  14	  86
  14	  91
  14	  94
  14	  95
  14	 100
  14	 105
  14	 107
  14	 108
  14	 114
  15	  16
  15	  20
  15	  24
  15	  25
  15	  30
  15	  31
  15	  32
  15	  34
  15	  35
  15	  36
  15	  42
  15	  47
  15	  48
  15	  49
  15	  52
  15	  57
  15	  58
  15	  59
  15	  61
  15	  62
  15	  66
  15	  67
  15	  69
  15	  70
  15	  71
  15	  74
  15	  75
  15	  77
  15	  81
  15	  84
  15	  87
  15	  89
  15	  91
  15	  93
  15	  96
  15	  97
  15	  99
  15	 106
  15	 109
  15	 110
  15	 115
  15	 119
  16	  17
  16	  18
  16	  19
  16	  20
  16	  21
  16	  22
  16	  31
  16	  33
  16	  34
  16	  39
  16	  41
  16	  43
  16	  45
  16	  46
  16	  47
  16	  48
  16	  49
  16	  52
  16	  55
  16	  58
  16	  59
  16	  60
  16	  61
  16	  62
  16	  63
  16	  66
  16	  68
  16	  70
  16	  71
  16	  72
  16	  74
  16	  75
  16	  76
  16	  77
  16	  81
  16	  82
  16	  83
  16	  85
  16	  86
  16	  88
  16	  89
  16	  92
  16	  99
  16	 101
  16	 107
  16	 109
  16	 110
  16	 114
  16	 117
  17	  18
  17	  19
  17	  21
  17	  23
  17	  27
  17	  28
  17	  29
  17	  30
  17	  34
  17	  37
  17	  39
  17	  40
  17	  44
  17	  46
  17	  48
  17	  50
  17	  51
  17	  53
  17	  56
  17	  58
  17	  61
  17	  63
  17	  64
  17	  68
  17	  71
  17	  72
  17	  74
  17	  77
  17	  80
  17	  84
  17	  85
  17	  92
  17	  94
  17	  96
  17	  99
  17	 100
  17	 101
  17	 102
  17	 104
  17	 105
  17	 107
  17	 109
  17	 110
  17	 114
  17	 115
  17	 116
  17	 118
  17	 119
  18	  19
  18	  20
  18	  21
  18	  22
  18	  28
  18	  33
  18	  34
  18	  39
  18	  40
  18	  41
  18	  43
  18	  44
  18	  45
  18	  46
  18	  48
  18	  49
  18	  50
  18	  55
  18	  56
  18	  59
  18	  60
  18	  61
  18	  63
  18	  64
  18	  65
  18	  66
  18	  71
  18	  75
  18	  77
  18	  79
  18	  80
  18	  83
  18	  84
  18	  85
  18	  86
  18	  87
  18	  91
  18	  92
  18	  93
  18	  94
  18	 100
  18	 102
  18	 105
  18	 106
  18	 107
  18	 108
  18	 115
  18	 117
  19	  24
  19	  25
  19	  27
  19	  29
  19	  30
  19	  32
  19	  33
  19	  34
  19	  35
  19	  37
  19	  40
  19	  44
  19	  47
  19	  52
  19	  55
  19	  58
  19	  61
  19	  70
  19	  73
  19	  77
  19	  78
  19	  80
  19	  82
  19	  84
  19	  85
  19	  86
  19	  93
  19	  94
  19	  96
  19	  98
  19	  99
  19	 100
  19	 102
  19	 105
  19	 107
  19	 109
  19	 115
  19	 117
  19	 119
  20	  21
  20	  24
  20	  30
  20	  31
  20	  36
  20	  39
  20	  40
  20	  41
  20	  45
  20	  50
  20	  51
  20	  53
  20	  54
  20	  58
  20	  60
  20	  61
  20	  62
  20	  65
  20	  66
  20	  67
  20	  68
  20	  71
  20	  73
  20	  86
  20	  87
  20	  94
  20	  96
  20	  97
  20	  98
  20	 103
  20	 104
  20	 107
  20	 110
  20	 112
  20	 114
  20	 117
  21	  22
  21	  24
  21	  37
  21	  38
  21	  40
  21	  43
  21	  48
  21	  51
  21	  52
  21	  53
  21	  54
  21	  55
  21	  56
  21	  59
  21	  60
  21	  61
  21	  66
  21	  73
  21	  74
  21	  75
  21	  76
  21	  79
  21	  81
  21	  85
  21	  86
  21	  88
  21	  89
  21	  90
  21	  99
  21	 101
  21	 112
  21	 113
  21	 116
  22	  26
  22	  27
  22	  28
  22	  30
  22	  31
  22	  32
  22	  36
  22	  37
  22	  38
  22	  41
  22	  42
  22	  48
  22	  51
  22	  52
  22	  54
  22	  58
  22	  60
  22	  63
  22	  65
  22	  66
  22	  69
  22	  71
  22	  72
  22	  74
  22	  76
  22	  78
  22	  79
  22	  81
  22	  83
  22	  84
  22	  85
  22	  86
  22	  88
  22	  92
  22	  93
  22	  94
  22	  95
  22	  97
  22	 102
  22	 103
  22	 104
  22	 106
  22	 107
  22	 110
  22	 111
  22	 112
  22	 117
  23	  24
  23	  26
  23	  28
  23	  29
  23	  35
  23	  39
  23	  42
  23	  44
  23	  46
  23	  47
  23	  48
  23	  56
  23	  58
  23	  64
  23	  68
  23	  69
  23	  70
  23	  73
  23	  75
  23	  77
  23	  78
  23	  80
  23	  81
  23	  82
  23	  83
  23	  84
  23	  86
  23	  89
  23	  93
  23	  94
  23	  96
  23	 100
  23	 101
  23	 103
  23	 104
  23	 108
  23	 110
  23	 117
  23	 118
  24	  25
  24	  27
  24	  37
  24	  41
  24	  42
  24	  44
  24	  45
  24	  46
  24	  48
  24	  49
  24	  52
  24	  55
  24	  57
  24	  58
  24	  60
  24	  62
  24	  64
  24	  65
  24	  66
  24	  67
  24	  70
  24	  71
  24	  73
  24	  81
  24	  86
  24	  87
  24	  89
  24	  90
  24	 100
  24	 101
  24	 104
  24	 107
  24	 108
  24	 109
  24	 111
  24	 112
  24	 118
  25	  26
  25	  29
  25	  30
  25	  37
  25	  38
  25	  39
  25	  41
  25	  50
  25	  51
  25	  52
  25	  54
  25	  60
  25	  61
  25	  62
  25	  63
  25	  67
  25	  69
  25	  73
  25	  75
  25	  76
  25	  82
  25	  83
  25	  85
  25	  87
  25	  88
  25	  91
  25	  96
  25	  97
  25	 101
  25	 102
  25	 106
  25	 107
  25	 108
  25	 110
  25	 111
  25	 114
  25	 115
  25	 116
  25	 118
  26	  28
  26	  35
  26	  38
  26	  44
  26	  45
  26	  46
  26	  47
  26	  49
  26	  50
  26	  53
  26	  55
  26	  59
  26	  60
  26	  63
  26	  67
  26	  70
  26	  71
  26	  75
  26	  78
  26	  85
  26	  88
  26	  91
  26	  92
  26	  99
  26	 100
  26	 103
  26	 104
  26	 105
  26	 108
  26	 111
  26	 113
  26	 115
  26	 116
  26	 117
  26	 118
  26	 119
  27	  28
  27	  31
  27	  33
  27	  37
  27	  38
  27	  39
  27	  40
  27	  41
  27	  45
  27	  46
  27	  53
  27	  55
  27	  56
  27	  61
  27	  67
  27	  69
  27	  71
  27	  78
  27	  79
  27	  80
  27	  81
  27	  88
  27	  91
  27	  92
  27	  93
  27	  95
  27	  96
  27	  98
  27	  99
  27	 100
  27	 102
  27	 104
  27	 105
  27	 113
  27	 114
  28	  31
  28	  33
  28	  40
  28	  46
  28	  47
  28	  48
  28	  49
  28	  51
  28	  53
  28	  55
  28	  56
  28	  59
  28	  63
  28	  65
  28	  67
  28	  68
  28	  70
  28	  72
  28	  73
  28	  75
  28	  79
  28	  80
  28	  81
  28	  82
  28	  84
  28	  85
  28	  86
  28	  90
  28	  94
  28	  95
  28	  97
  28	 100
  28	 103
  28	 104
  28	 106
  28	 109
  28	 110
  28	 111
  28	 112
  28	 115
  29	  31
  29	  32
  29	  33
  29	  35
  29	  38
  29	  39
  29	  42
  29	  44
  29	  47
  29	  49
  29	  50
  29	  54
  29	  59
  29	  62
  29	  63
  29	  64
  29	  66
  29	  71
  29	  73
  29	  74
  29	  75
  29	  76
  29	  78
  29	  83
  29	  84
  29	  85
  29	  86
  29	  87
  29	  91
  29	  92
  29	  93
  29	  95
  29	  96
  29	 102
  29	 104
  29	 112
  29	 116
  29	 117
  30	  33
  30	  37
  30	  39
  30	  40
  30	  41
  30	  42
  30	  43
  30	  46
  30	  47
  30	  51
  30	  53
  30	  54
  30	  55
  30	  56
  30	  61
  30	  63
  30	  67
  30	  68
  30	  71
  30	  72
  30	  73
  30	  77
  30	  78
  30	  85
  30	  87
  30	  89
  30	  90
  30	  91
  30	  92
  30	  97
  30	  98
  30	 100
  30	 101
  30	 104
  30	 110
  30	 111
  30	 113
  30	 114
  30	 117
  30	 118
  30	 119
  31	  36
  31	  37
  31	  38
  31	  42
  31	  43
  31	  44
  31	  45
  31	  47
  31	  48
  31	  51
  31	  55
  31	  58
  31	  63
  31	  66
  31	  70
  31	  71
  31	  73
  31	  75
  31	  76
  31	  77
  31	  93
  31	  98
  31	 100
  31	 108
  31	 109
  31	 111
  31	 112
  31	 115
  31	 116
  31	 119
  32	  33
  32	  34
  32	  35
  32	  36
  32	  37
  32	  38
  32	  41
  32	  42
  32	  46
  32	  47
  32	  49
  32	  55
  32	  57
  32	  60
  32	  69
  32	  71
  32	  73
  32	  74
  32	  75
  32	  79
  32	  81
  32	  83
  32	  84
  32	  88
  32	  89
  32	  90
  32	  93
  32	  94
  32	  95
  32	  96
  32	 100
  32	 102
  32	 103
  32	 106
  32	 109
  32	 111
  32	 115
  32	 118
  32	 119
  33	  38
  33	  40
  33	  43
  33	  48
  33	  49
  33	  52
  33	  53
  33	  55
  33	  59
  33	  60
  33	  65
  33	  68
  33	  75
  33	  76
  33	  77
  33	  79
  33	  86
  33	  88
  33	  89
  33	  91
  33	  93
  33	 101
  33	 105
  33	 108
  33	 111
  33	 113
  33	 114
  34	  35
  34	  38
  34	  39
  34	  40
  34	  44
  34	  46
  34	  48
  34	  49
  34	  50
  34	  53
  34	  61
  34	  62
  34	  63
  34	  65
  34	  67
  34	  68
  34	  71
  34	  73
  34	  74
  34	  77
  34	  78
  34	  84
  34	  86
  34	  87
  34	  91
  34	  97
  34	  98
  34	 100
  34	 104
  34	 106
  34	 108
  34	 111
  34	 114
  34	 115
  34	 117
  34	 118
  34	 119
  35	  39
  35	  44
  35	  45
  35	  47
  35	  49
  35	  50
  35	  55
  35	  56
  35	  59
  35	  63
  35	  65
  35	  67
  35	  81
  35	  82
  35	  84
  35	  85
  35	  90
  35	  91
  35	  92
  35	  94
  35	  95
  35	  98
  35	  99
  35	 107
  35	 109
  35	 111
  35	 116
  35	 118
  35	 119
  36	  38
  36	  47
  36	  48
  36	  49
  36	  53
  36	  54
  36	  60
  36	  61
  36	  77
  36	  78
  36	  87
  36	  89
  36	  95
  36	  97
  36	  98
  36	  99
  36	 102
  36	 107
  36	 112
  36	 114
  36	 115
  36	 116
  36	 117
  36	 118
  37	  38
  37	  39
  37	  42
  37	  43
  37	  45
  37	  50
  37	  51
  37	  53
  37	  54
  37	  56
  37	  58
  37	  59
  37	  61
  37	  63
  37	  65
  37	  66
  37	  68
  37	  72
  37	  73
  37	  76
  37	  78
  37	  83
  37	  84
  37	  85
  37	  87
  37	  89
  37	  94
  37	  97
  37	  98
  37	 105
  37	 106
  37	 108
  37	 109
  37	 111
  38	  41
  38	  42
  38	  46
  38	  49
  38	  55
  38	  56
  38	  57
  38	  58
  38	  60
  38	  62
  38	  63
  38	  64
  38	  68
  38	  69
  38	  70
  38	  73
  38	  75
  38	  77
  38	  78
  38	  80
  38	  85
  38	  87
  38	  90
  38	  91
  38	  92
  38	  94
  38	  95
  38	  97
  38	 101
  38	 105
  38	 108
  38	 110
  38	 111
  38	 114
  38	 115
  38	 117
  39	  40
  39	  48
  39	  49
  39	  52
  39	  57
  39	  58
  39	  60
  39	  64
  39	  65
  39	  66
  39	  71
  39	  72
  39	  73
  39	  74
  39	  75
  39	  76
  39	  81
  39	  83
  39	  85
  39	  86
  39	  87
  39	  88
  39	  90
  39	  91
  39	  93
  39	  95
  39	  96
  39	  97
  39	  98
  39	 103
  39	 104
  39	 107
  39	 112
  39	 114
  40	  41
  40	  44
  40	  49
  40	  51
  40	  52
  40	  54
  40	  58
  40	  61
  40	  63
  40	  64
  40	  66
  40	  67
  40	  71
  40	  76
  40	  86
  40	  87
  40	  88
  40	  90
  40	  92
  40	  94
  40	  98
  40	 102
  40	 105
  40	 108
  40	 111
  40	 113
  40	 114
  40	 116
  40	 117
  40	 119
  41	  45
  41	  47
  41	  50
  41	  51
  41	  52
  41	  54
  41	  58
  41	  60
  41	  65
  41	  70
  41	  71
  41	  73
  41	  78
  41	  79
  41	  84
  41	  85
  41	  87
  41	  89
  41	  95
  41	  96
  41	  98
  41	  99
  41	 101
  41	 103
  41	 106
  41	 107
  41	 111
  41	 114
  41	 116
  42	  45
  42	  47
  42	  52
  42	  54
  42	  58
  42	  61
  42	  63
  42	  67
  42	  69
  42	  70
  42	  74
  42	  76
  42	  77
  42	  78
  42	  80
  42	  81
  42	  82
  42	  83
  42	  84
  42	  85
  42	  89
  42	  91
  42	 102
  42	 103
  42	 108
  42	 111
  42	 112
  42	 119
  43	  47
  43	  51
  43	  52
  43	  55
  43	  56
  43	  58
  43	  60
  43	  63
  43	  64
  43	  65
  43	  67
  43	  69
  43	  71
  43	  72
  43	  76
  43	  78
  43	  79
  43	  87
  43	  88
  43	  91
  43	  96
  43	  97
  43	 101
  43	 102
  43	 103
  43	 105
  43	 107
  43	 112
  43	 113
  43	 115
  44	  48
  44	  49
  44	  51
  44	  52
  44	  53
  44	  55
  44	  59
  44	  64
  44	  65
  44	  66
  44	  75
  44	  77
  44	  78
  44	  80
  44	  82
  44	  86
  44	  88
  44	  89
  44	  94
  44	  96
  44	  99
  44	 102
  44	 106
  44	 111
  44	 114
  44	 115
  44	 118
  45	  46
  45	  48
  45	  57
  45	  58
  45	  59
  45	  61
  45	  62
  45	  66
  45	  68
  45	  69
  45	  70
  45	  72
  45	  77
  45	  78
  45	  84
  45	  89
  45	  95
  45	  97
  45	  99
  45	 100
  45	 101
  45	 106
  45	 107
  45	 108
  45	 112
  45	 114
  45	 115
  45	 118
  45	 119
  46	  50
  46	  53
  46	  60
  46	  61
  46	  63
  46	  64
  46	  66
  46	  68
  46	  70
  46	  72
  46	  74
  46	  78
  46	  80
  46	  81
  46	  90
  46	  94
  46	  95
  46	 103
  46	 105
  46	 106
  46	 107
  46	 108
  46	 112
  46	 113
  46	 115
  46	 116
  46	 118
  46	 119
  47	  48
  47	  51
  47	  55
  47	  60
  47	  61
  47	  64
  47	  73
  47	  78
  47	  80
  47	  82
  47	  84
  47	  85
  47	  87
  47	  88
  47	  90
  47	  92
  47	  93
  47	  94
  47	 101
  47	 102
  47	 103
  47	 104
  47	 105
  47	 107
  47	 109
  47	 113
  47	 114
  47	 115
  47	 117
  48	  50
  48	  52
  48	  54
  48	  57
  48	  58
  48	  59
  48	  62
  48	  63
  48	  67
  48	  68
  48	  71
  48	  73
  48	  76
  48	  77
  48	  78
  48	  79
  48	  81
  48	  82
  48	  84
  48	  85
  48	  89
  48	  90
  48	  93
  48	  97
  48	  99
  48	 101
  48	 108
  48	 109
  48	 113
  48	 114
  48	 116
  48	 117
  49	  53
  49	  54
  49	  55
  49	  57
  49	  58
  49	  59
  49	  62
  49	  63
  49	  64
  49	  65
  49	  68
  49	  75
  49	  76
  49	  80
  49	  83
  49	  85
  49	  86
  49	  90
  49	  95
  49	  99
  49	 100
  49	 104
  49	 105
  49	 107
  49	 109
  49	 110
  49	 113
  49	 118
  49	 119
  50	  53
  50	  54
  50	  55
  50	  57
  50	  58
  50	  62
  50	  67
  50	  76
  50	  81
  50	  84
  50	  90
  50	  91
  50	  92
  50	  94
  50	  98
  50	  99
  50	 104
  50	 112
  50	 113
  50	 114
  50	 119
  51	  53
  51	  54
  51	  57
  51	  59
  51	  60
  51	  63
  51	  65
  51	  67
  51	  68
  51	  70
  51	  71
  51	  82
  51	  84
  51	  85
  51	  89
  51	  90
  51	  94
  51	  95
  51	  96
  51	 103
  51	 104
  51	 105
  51	 108
  51	 109
  51	 111
  51	 112
  51	 114
  51	 115
  51	 118
  52	  53
  52	  54
  52	  60
  52	  61
  52	  62
  52	  64
  52	  65
  52	  66
  52	  67
  52	  69
  52	  70
  52	  73
  52	  76
  52	  79
  52	  81
  52	  82
  52	  86
  52	  87
  52	  88
  52	  90
  52	  91
  52	  94
  52	  95
  52	  97
  52	  99
  52	 100
  52	 101
  52	 103
  52	 105
  52	 109
  52	 111
  52	 112
  52	 116
  52	 118
  52	 119
  53	  56
  53	  62
  53	  63
  53	  64
  53	  66
  53	  69
  53	  71
  53	  74
  53	  76
  53	  77
  53	  80
  53	  85
  53	  87
  53	  88
  53	  90
  53	  92
  53	  95
  53	 100
  53	 102
  53	 107
  53	 108
  53	 112
  53	 113
  53	 114
  53	 115
  53	 117
  54	  55
  54	  59
  54	  60
  54	  61
  54	  63
  54	  73
  54	  76
  54	  78
  54	  81
  54	  84
  54	  87
  54	  93
  54	  94
  54	  97
  54	 100
  54	 105
  54	 108
  54	 109
  54	 115
  54	 116
  54	 117
  54	 118
  54	 119
  55	  56
  55	  57
  55	  58
  55	  59
  55	  62
  55	  63
  55	  64
  55	  69
  55	  73
  55	  74
  55	  77
  55	  78
  55	  80
  55	  85
  55	  89
  55	  91
  55	  98
  55	 100
  55	 101
  55	 103
  55	 107
  55	 114
  55	 115
  56	  57
  56	  59
  56	  60
  56	  61
  56	  64
  56	  68
  56	  69
  56	  70
  56	  72
  56	  73
  56	  76
  56	  77
  56	  78
  56	  79
  56	  82
  56	  83
  56	  85
  56	  91
  56	  94
  56	 103
  56	 113
  56	 118
  57	  59
  57	  60
  57	  61
  57	  62
  57	  64
  57	  68
  57	  71
  57	  72
  57	  76
  57	  78
  57	  80
  57	  91
  57	  95
  57	  98
  57	  99
  57	 102
  57	 103
  57	 104
  57	 105
  57	 108
  57	 110
  57	 112
  57	 114
  57	 117
  57	 118
  57	 119
  58	  61
  58	  62
  58	  65
  58	  67
  58	  72
  58	  73
  58	  74
  58	  75
  58	  77
  58	  78
  58	  79
  58	  80
  58	  84
  58	  86
  58	  88
  58	  94
  58	 100
  58	 103
  58	 107
  58	 109
  58	 110
  58	 115
  58	 116
  58	 119
  59	  63
  59	  66
  59	  72
  59	  74
  59	  77
  59	  80
  59	  81
  59	  82
  59	  84
  59	  85
  59	  86
  59	  87
  59	  89
  59	  90
  59	  91
  59	  92
  59	  93
  59	  95
  59	  96
  59	  97
  59	 102
  59	 104
  59	 105
  59	 108
  59	 109
  59	 112
  59	 113
  59	 118
  59	 119
  60	  61
  60	  66
  60	  67
  60	  69
  60	  71
  60	  72
  60	  73
  60	  75
  60	  80
  60	  81
  60	  82
  60	  86
  60	  89
  60	  90
  60	  91
  60	  92
  60	  98
  60	  99
  60	 102
  60	 103
  60	 106
  60	 108
  60	 109
  60	 110
  60	 114
  61	  62
  61	  67
  61	  68
  61	  69
  61	  72
  61	  74
  61	  75
  61	  78
  61	  79
  61	  80
  61	  81
  61	  82
  61	  83
  61	  84
  61	  85
  61	  86
  61	  87
  61	  89
  61	  94
  61	  95
  61	  97
  61	  98
  61	  99
  61	 101
  61	 102
  61	 103
  61	 104
  61	 106
  61	 107
  61	 112
  61	 116
  62	  66
  62	  67
  62	  68
  62	  70
  62	  71
  62	  78
  62	  81
  62	  85
  62	  87
  62	  90
  62	  91
  62	  95
  62	  97
  62	 100
  62	 104
  62	 105
  62	 110
  62	 111
  62	 112
  62	 119
  63	  65
  63	  66
  63	  67
  63	  71
  63	  74
  63	  80
  63	  83
  63	  85
  63	  86
  63	  87
  63	  94
  63	  97
  63	 102
  63	 103
  63	 106
  63	 107
  63	 112
  63	 113
  63	 114
  63	 117
  63	 119
  64	  67
  64	  69
  64	  73
  64	  74
  64	  75
  64	  76
  64	  84
  64	  85
  64	  91
  64	  96
  64	  97
  64	 100
  64	 106
  64	 108
  64	 110
  64	 115
  64	 119
  65	  67
  65	  68
  65	  69
  65	  71
  65	  73
  65	  74
  65	  75
  65	  76
  65	  79
  65	  80
  65	  81
  65	  85
  65	  86
  65	  87
  65	  89
  65	  90
  65	  91
  65	  95
  65	 109
  65	 113
  65	 118
  66	  72
  66	  80
  66	  83
  66	  84
  66	  91
  66	  93
  66	  95
  66	  96
  66	  97
  66	 104
  66	 105
  66	 106
  66	 107
  66	 109
  66	 110
  66	 112
  66	 113
  66	 114
  66	 118
  66	 119
  67	  68
  67	  70
  67	  73
  67	  74
  67	  75
  67	  79
  67	  80
  67	  82
  67	  83
  67	  84
  67	  95
  67	  96
  67	  98
  67	 100
  67	 101
  67	 102
  67	 107
  67	 110
  67	 112
  67	 115
  67	 118
  67	 119
  68	  69
  68	  73
  68	  76
  68	  77
  68	  78
  68	  79
  68	  83
  68	  84
  68	  86
  68	  90
  68	  93
  68	  94
  68	  97
  68	  98
  68	  99
  68	 101
  68	 102
  68	 103
  68	 104
  68	 106
  68	 108
  68	 109
  68	 110
  68	 112
  68	 113
  68	 115
  68	 116
  69	  70
  69	  71
  69	  77
  69	  82
  69	  83
  69	  85
  69	  91
  69	  95
  69	  96
  69	  97
  69	  98
  69	 104
  69	 106
  69	 107
  69	 109
  69	 110
  69	 112
  69	 114
  69	 115
  69	 117
  69	 118
  70	  71
  70	  73
  70	  75
  70	  76
  70	  78
  70	  79
  70	  80
  70	  82
  70	  85
  70	  90
  70	  92
  70	  94
  70	  95
  70	  96
  70	  98
  70	 100
  70	 101
  70	 103
  70	 106
  70	 110
  70	 113
  70	 114
  70	 116
  70	 118
  70	 119
  71	  73
  71	  74
  71	  81
  71	  87
  71	  95
  71	  96
  71	  99
  71	 100
  71	 104
  71	 118
  72	  75
  72	  78
  72	  83
  72	  87
  72	  90
  72	  95
  72	  98
  72	  99
  72	 100
  72	 105
  72	 111
  72	 115
  72	 116
  72	 119
  73	  75
  73	  78
  73	  84
  73	  87
  73	  89
  73	  90
  73	  99
  73	 102
  73	 105
  73	 107
  73	 108
  73	 109
  73	 112
  73	 114
  73	 115
  73	 117
  73	 118
  74	  75
  74	  76
  74	  78
  74	  82
  74	  84
  74	  91
  74	  93
  74	  94
  74	  97
  74	  98
  74	 100
  74	 101
  74	 105
  74	 106
  74	 108
  74	 110
  74	 111
  74	 112
  74	 115
  74	 116
  74	 117
  74	 118
  74	 119
  75	  82
  75	  83
  75	  84
  75	  86
  75	  89
  75	  90
  75	  91
  75	  95
  75	  99
  75	 104
  75	 105
  75	 109
  75	 111
  75	 112
  75	 118
  76	  79
  76	  80
  76	  81
  76	  82
  76	  84
  76	  86
  76	  87
  76	  91
  76	  92
  76	  96
  76	  97
  76	  98
  76	 101
  76	 108
  76	 110
  76	 113
  76	 115
  76	 116
  76	 117
  76	 119
  77	  79
  77	  82
  77	  85
  77	  86
  77	  93
  77	  95
  77	  97
  77	  99
  77	 104
  77	 106
  77	 107
  78	  82
  78	  87
  78	  90
  78	  91
  78	  92
  78	  96
  78	  97
  78	 107
  78	 110
  78	 111
  78	 114
  78	 115
  78	 118
  78	 119
  79	  80
  79	  81
  79	  85
  79	  90
  79	  92
  79	  95
  79	  97
  79	 101
  79	 102
  79	 106
  79	 107
  79	 111
  79	 112
  79	 115
  79	 117
  79	 119
  80	  84
  80	  87
  80	  93
  80	  95
  80	  98
  80	  99
  80	 105
  80	 106
  80	 107
  80	 108
  80	 111
  80	 112
  80	 117
  80	 119
  81	  82
  81	  85
  81	  92
  81	  93
  81	  97
  81	  99
  81	 101
  81	 104
  81	 105
  81	 110
  81	 111
  81	 113
  81	 116
  81	 119
  82	  87
  82	  89
  82	  94
  82	  95
  82	  96
  82	  97
  82	 100
  82	 102
  82	 104
  82	 105
  82	 107
  82	 108
  82	 109
  82	 110
  82	 115
  82	 116
  83	  84
  83	  85
  83	  87
  83	  88
  83	  91
  83	  92
  83	  98
  83	 104
  83	 105
  83	 107
  83	 109
  83	 110
  83	 111
  83	 114
  83	 118
  84	  86
  84	  87
  84	  88
  84	  89
  84	  90
  84	  96
  84	  98
  84	  99
  84	 100
  84	 101
  84	 102
  84	 103
  84	 104
  84	 105
  84	 113
  84	 114
  84	 116
  85	  88
  85	  90
  85	  91
  85	  93
  85	  94
  85	  96
  85	  97
  85	 100
  85	 101
  85	 103
  85	 109
  85	 111
  85	 113
  85	 115
  85	 117
  85	 119
  86	  89
  86	  92
  86	  93
  86	  96
  86	  98
  86	 100
  86	 104
  86	 107
  86	 109
  86	 113
  86	 114
  87	  88
  87	  89
  87	  95
  87	  96
  87	 100
  87	 101
  87	 103
  87	 105
  87	 108
  87	 110
  87	 114
  87	 118
  88	  89
  88	  92
  88	  93
  88	  95
  88	  97
  88	 101
  88	 102
  88	 104
  88	 110
  88	 112
  88	 117
  88	 118
  88	 119
  89	  91
  89	  92
  89	  93
  89	  94
  89	  95
  89	  97
  89	 100
  89	 101
  89	 102
  89	 104
  89	 105
  89	 108
  89	 112
  89	 113
  89	 114
  89	 118
  90	  93
  90	  95
  90	  96
  90	 100
  90	 104
  90	 105
  90	 106
  90	 109
  90	 112
  90	 116
  90	 117
  90	 119
  91	  92
  91	  94
  91	  95
  91	 106
  91	 110
  91	 112
  91	 113
  91	 116
  91	 117
  91	 118
  92	  93
  92	 105
  92	 107
  92	 109
  92	 110
  92	 113
  92	 115
  92	 117
  92	 118
  93	  94
  93	  96
  93	 107
  93	 108
  93	 110
  93	 112
  93	 116
  93	 118
  94	  95
  94	  98
  94	 102
  94	 103
  94	 105
  94	 106
  94	 107
  94	 109
  94	 111
  94	 112
  95	  98
  95	  99
  95	 100
  95	 101
  95	 105
  95	 106
  95	 109
  95	 115
  96	  98
  96	  99
  96	 100
  96	 101
  96	 102
  96	 107
  96	 108
  96	 115
  96	 117
  96	 118
  97	  99
  97	 102
  97	 103
  97	 105
  97	 107
  97	 110
  97	 115
  97	 118
  98	 101
  98	 102
  98	 103
  98	 104
  98	 107
  98	 110
  98	 114
  98	 118
  99	 104
  99	 105
  99	 109
  99	 110
  99	 112
  99	 118
  99	 119
 100	 101
 100	 102
 100	 104
 100	 109
 100	 111
 100	 113
 100	 114
 100	 118
 101	 103
 101	 105
 101	 107
 101	 108
 101	 109
 101	 111
 101	 112
 101	 113
 101	 114
 101	 116
 102	 103
 102	 104
 102	 105
 102	 111
 102	 112
 102	 115
 102	 117
 102	 118
 102	 119
 103	 104
 103	 105
 103	 112
 103	 113
 103	 118
 103	 119
 104	 108
 104	 112
 104	 116
 105	 108
 105	 114
 105	 115
 105	 116
 105	 119
 106	 107
 106	 109
 106	 111
 106	 112
 106	 114
 106	 116
 106	 119
 107	 109
 107	 110
 107	 119
 108	 110
 108	 113
 108	 114
 108	 116
 108	 117
 109	 111
 109	 113
 109	 115
 109	 116
 109	 117
 109	 119
 110	 113
 110	 116
 110	 118
 110	 119
 111	 113
 111	 117
 112	 114
 113	 114
 113	 119
 114	 116
 114	 118
 115	 116
 115	 117
 116	 119
 117	 118
;
